GaSb                                    
   1.00677000000000     
     0.0000000000000000    3.0479500000000002    3.0479500000000002
     3.0479500000000002    0.0000000000000000    3.0479500000000002
     3.0479500000000002    3.0479500000000002    0.0000000000000000
   Ga   Sb
     1     1
Direct
  0.0000000000000000  0.0000000000000000  0.0000000000000000
  0.2500000000000000  0.2500000000000000  0.2500000000000000
